K-points for Fermi surface
    60
Reciprocal lattice
0.00000000000000 0.00000000000000 0.00000000000000 1.00000000000000
0.00000000000000 0.00000000000000 0.25000000000000 1.00000000000000
0.00000000000000 0.00000000000000 0.50000000000000 1.00000000000000
0.00000000000000 0.00000000000000 0.75000000000000 1.00000000000000
0.00000000000000 0.00000000000000 1.00000000000000 1.00000000000000
0.00000000000000 0.33333333333333 0.00000000000000 1.00000000000000
0.00000000000000 0.33333333333333 0.25000000000000 1.00000000000000
0.00000000000000 0.33333333333333 0.50000000000000 1.00000000000000
0.00000000000000 0.33333333333333 0.75000000000000 1.00000000000000
0.00000000000000 0.33333333333333 1.00000000000000 1.00000000000000
0.00000000000000 0.66666666666667 0.00000000000000 1.00000000000000
0.00000000000000 0.66666666666667 0.25000000000000 1.00000000000000
0.00000000000000 0.66666666666667 0.50000000000000 1.00000000000000
0.00000000000000 0.66666666666667 0.75000000000000 1.00000000000000
0.00000000000000 0.66666666666667 1.00000000000000 1.00000000000000
0.00000000000000 1.00000000000000 0.00000000000000 1.00000000000000
0.00000000000000 1.00000000000000 0.25000000000000 1.00000000000000
0.00000000000000 1.00000000000000 0.50000000000000 1.00000000000000
0.00000000000000 1.00000000000000 0.75000000000000 1.00000000000000
0.00000000000000 1.00000000000000 1.00000000000000 1.00000000000000
0.50000000000000 0.00000000000000 0.00000000000000 1.00000000000000
0.50000000000000 0.00000000000000 0.25000000000000 1.00000000000000
0.50000000000000 0.00000000000000 0.50000000000000 1.00000000000000
0.50000000000000 0.00000000000000 0.75000000000000 1.00000000000000
0.50000000000000 0.00000000000000 1.00000000000000 1.00000000000000
0.50000000000000 0.33333333333333 0.00000000000000 1.00000000000000
0.50000000000000 0.33333333333333 0.25000000000000 1.00000000000000
0.50000000000000 0.33333333333333 0.50000000000000 1.00000000000000
0.50000000000000 0.33333333333333 0.75000000000000 1.00000000000000
0.50000000000000 0.33333333333333 1.00000000000000 1.00000000000000
0.50000000000000 0.66666666666667 0.00000000000000 1.00000000000000
0.50000000000000 0.66666666666667 0.25000000000000 1.00000000000000
0.50000000000000 0.66666666666667 0.50000000000000 1.00000000000000
0.50000000000000 0.66666666666667 0.75000000000000 1.00000000000000
0.50000000000000 0.66666666666667 1.00000000000000 1.00000000000000
0.50000000000000 1.00000000000000 0.00000000000000 1.00000000000000
0.50000000000000 1.00000000000000 0.25000000000000 1.00000000000000
0.50000000000000 1.00000000000000 0.50000000000000 1.00000000000000
0.50000000000000 1.00000000000000 0.75000000000000 1.00000000000000
0.50000000000000 1.00000000000000 1.00000000000000 1.00000000000000
1.00000000000000 0.00000000000000 0.00000000000000 1.00000000000000
1.00000000000000 0.00000000000000 0.25000000000000 1.00000000000000
1.00000000000000 0.00000000000000 0.50000000000000 1.00000000000000
1.00000000000000 0.00000000000000 0.75000000000000 1.00000000000000
1.00000000000000 0.00000000000000 1.00000000000000 1.00000000000000
1.00000000000000 0.33333333333333 0.00000000000000 1.00000000000000
1.00000000000000 0.33333333333333 0.25000000000000 1.00000000000000
1.00000000000000 0.33333333333333 0.50000000000000 1.00000000000000
1.00000000000000 0.33333333333333 0.75000000000000 1.00000000000000
1.00000000000000 0.33333333333333 1.00000000000000 1.00000000000000
1.00000000000000 0.66666666666667 0.00000000000000 1.00000000000000
1.00000000000000 0.66666666666667 0.25000000000000 1.00000000000000
1.00000000000000 0.66666666666667 0.50000000000000 1.00000000000000
1.00000000000000 0.66666666666667 0.75000000000000 1.00000000000000
1.00000000000000 0.66666666666667 1.00000000000000 1.00000000000000
1.00000000000000 1.00000000000000 0.00000000000000 1.00000000000000
1.00000000000000 1.00000000000000 0.25000000000000 1.00000000000000
1.00000000000000 1.00000000000000 0.50000000000000 1.00000000000000
1.00000000000000 1.00000000000000 0.75000000000000 1.00000000000000
1.00000000000000 1.00000000000000 1.00000000000000 1.00000000000000
